************************************************************************
file with basedata            : j60_23.bas
initial value random generator: 276844910
************************************************************************
projects                      :  1
jobs (incl. supersource/sink ):  62
horizon                       :  362
RESOURCES
  - renewable                 :  4   R
  - nonrenewable              :  0   N
  - doubly constrained        :  0   D
************************************************************************
PROJECT INFORMATION:
pronr.  #jobs rel.date duedate tardcost  MPM-Time
    1     60      0       63       25       63
************************************************************************
PRECEDENCE RELATIONS:
jobnr.    #modes  #successors   successors
   1        1          3           2   3   4
   2        1          1           7
   3        1          3           6  11  43
   4        1          3           5  15  20
   5        1          3          23  42  50
   6        1          2           9  17
   7        1          3           8  12  18
   8        1          3          10  13  35
   9        1          1          41
  10        1          1          33
  11        1          2          16  38
  12        1          3          14  22  34
  13        1          3          24  27  58
  14        1          3          27  44  61
  15        1          2          29  49
  16        1          3          21  25  30
  17        1          3          19  26  29
  18        1          1          33
  19        1          1          39
  20        1          1          33
  21        1          1          51
  22        1          2          26  32
  23        1          1          31
  24        1          1          53
  25        1          1          28
  26        1          2          52  57
  27        1          2          45  55
  28        1          1          37
  29        1          1          53
  30        1          1          61
  31        1          1          32
  32        1          1          56
  33        1          1          36
  34        1          2          37  51
  35        1          1          49
  36        1          2          45  55
  37        1          1          40
  38        1          1          44
  39        1          1          41
  40        1          1          47
  41        1          1          47
  42        1          1          51
  43        1          2          45  46
  44        1          1          47
  45        1          1          48
  46        1          1          48
  47        1          1          50
  48        1          1          57
  49        1          1          52
  50        1          2          54  59
  51        1          1          61
  52        1          1          55
  53        1          1          54
  54        1          1          60
  55        1          1          60
  56        1          1          57
  57        1          1          60
  58        1          1          59
  59        1          1          62
  60        1          1          62
  61        1          1          62
  62        1          0        
************************************************************************
REQUESTS/DURATIONS:
jobnr. mode duration  R 1  R 2  R 3  R 4
------------------------------------------------------------------------
  1      1     0       0    0    0    0
  2      1     5       4    4    0    0
  3      1     7       0   10    7    8
  4      1     8      10    4    7    1
  5      1     9       1    8    0    0
  6      1     4       0    8    0    0
  7      1     7       0    0   10    9
  8      1     3       0    6    4    0
  9      1     8       0    1    3    9
 10      1     7       5    5    5    3
 11      1     1       9    4    3    0
 12      1     3       1    0    2    0
 13      1     1       0    9    3    0
 14      1     7       8    0    0    0
 15      1     1       2    0    0    0
 16      1     8       0    7    1    0
 17      1    10       9    1    1    0
 18      1     5       4    0    6    0
 19      1     6       9    1    0    0
 20      1     4       0    3    0    0
 21      1     8       5    0    0    0
 22      1     4       9    7    0    9
 23      1     4       0    7    0    0
 24      1     5       7    3    0    0
 25      1     5       0    0    7    2
 26      1    10       0    8    3    0
 27      1     9       0    8    7    5
 28      1     9       0    5    9    0
 29      1     4       0    0    5    0
 30      1     9       0    4    1    0
 31      1     9       0    1    0    6
 32      1     2       0    0    9    0
 33      1     1       3    4    0    2
 34      1     4       9    0   10    0
 35      1     5       0    2   10    0
 36      1     7       0    0    3    0
 37      1    10       4    6    0    7
 38      1     5       1    0    0    0
 39      1     2       0    0    2    3
 40      1     9       9    3    7    0
 41      1     9      10    7    0    0
 42      1     5       0    0    6    4
 43      1     6       0    1    0    5
 44      1     8      10    0    0    1
 45      1    10       9    8    0    0
 46      1     9       0    0    9    0
 47      1     3       0    0    0    3
 48      1    10       9    4    0    0
 49      1     8       1    0    0    0
 50      1     2       0    5    1    9
 51      1     7       0    4    8    6
 52      1     7       9   10    0    0
 53      1     7       2    5    3    0
 54      1     6       9    9    0    0
 55      1     9       0    0    6    0
 56      1     8       1    1    0    0
 57      1    10       1    0    6    0
 58      1     6       0    8    0    7
 59      1     1       5    0    0    0
 60      1     2       0    0    3    2
 61      1     4       9    0    1    0
 62      1     0       0    0    0    0
************************************************************************
RESOURCEAVAILABILITIES:
  R 1  R 2  R 3  R 4
   43   31   39   27
************************************************************************
